evm/ejemplos_dzn/EthPriceMintModule_run_code_of_0_block_141_0_input - Copy.dzn
TERM = { '.', s0, s1, s10, s5, s6, s7, s9};
null = '.';
s = 8;
n = 7;
min = 8;
N0 = 0;
ZEROARYOP = {};
zeroout = [];
zerogas = [];
zerosz =  [];
zerolb =  [];
zeroub =  [];
N1 = 3;
UNARYOP = { ISZERO_0, MLOAD_0, ISZERO_1 };
unin = [ s9, s1, s7 ];
unout = [ s10, s7, s9 ];
ungas = [ 3, 3, 3 ];
unsz = [ 1, 1, 1 ];
unlb = [ 1, 1, 1 ];
unub = [ 8, 8, 8 ];
N2 = 1;
BINARYOP = { EQ_0 };
binin1 = [s7 ];
binin2 = [s10 ];
binout = [s6 ];
bincomm = [true ];
bingas = [3 ];
binsz = [1 ];
binlb = [ 1 ];
binub = [ 8 ];
NA = 0;
ASSOCIATIVEADDOP = {};
naddin =  [];
addin =  [||];
addout = [];
addcomm = [];
addgas = [];
addsz =  [];
addlb =  [];
addub =  [];
NPUSH = 1;
PUSHOP = { 'PUSH [tag]_0' };
pushout = [ s5 ];
pushgas = [ 3 ];
pushsz = [ 3 ];
pushlb = [ 1 ];
pushub = [ 8 ];
NSTORE = 0;
STOROP = {};
storin1 =  [];
storin2 =  [];
storlb =  [];
storub =  [];
storgas = [];
storsz = [];
DUP_ENUM = { DUP1, DUP2, DUP3, DUP4, DUP5, DUP6};
SWAP_ENUM = { SWAP1, SWAP2, SWAP3, SWAP4, SWAP5, SWAP6};
startstack = [ s0, s1, null, null, null, null, null ];
endstack = [ s5, s6, s7, s0, s1, null, null ];
m_dep_n = 0;
memory_dependences = [| |];
s_dep_n = 0;
store_dependences = [| |];
lib = true;
nlib = 0;
lib_elem = [| |];
lib_dis = [];
